0001 21
0002 3
0003 21
0004 19
0005 19
0006 13
0007 13
0008 9
0009 17
0010 17
0011 17
0012 17
0013 20
0014 15
0015 2
0016 15
0017 5
0018 12
0019 1
0020 11
0021 10
0022 14
0023 10
0024 11
0025 11
0026 11
0027 9
0028 21
0029 21
0030 21
0031 21
0032 6
0033 6
0034 6
0035 7
0036 7
0037 7
0038 7
0039 7
0040 16
0041 7
0042 7
0043 16
0044 5
0045 9
0046 18
0047 2
0048 2
0049 2
0050 19
0051 2
0052 5
0053 11
0054 12
0055 12
0056 12
0057 14
0058 4
0059 4
0060 5
0061 5
0062 11
0063 10
0064 12
0065 1
0066 21
0067 18
0068 12
0069 5
0070 5
0071 5
0072 4
0073 21
0074 20
0075 1
0076 3
0077 3
0078 2
0079 12
0080 16
0081 12
0082 12
0083 16
0084 16
0085 18
0086 18
0087 20
0088 4
0089 19
0090 5
0091 9
0092 5
0093 21
0094 14
0095 8
0096 21
0097 11
0098 11
0099 18
0100 3
0101 8
0102 14
0103 13
0104 2
0105 4
0106 5
0107 8
0108 7
0109 8
0110 7
0111 7
0112 12
0113 4
0114 13
0115 13
0116 4
0117 3
0118 4
0119 4
0120 14
0121 16
0122 20
0123 20
0124 10
0125 11
0126 1
0127 1
0128 19
0129 9
0130 1
0131 1
0132 3
0133 1
0134 2
0135 9
0136 9
0137 9
0138 12
0139 12
0140 1
0141 2
0142 2
0143 1
0144 1
0145 10
0146 15
0147 10
0148 10
0149 10
0150 9
0151 6
0152 19
0153 19
0154 18
0155 19
0156 15
0157 20
0158 12
0159 10
0160 14
0161 21
0162 16
0163 21
0164 12
0165 8
0166 10
0167 9
0168 20
0169 18
0170 16
0171 14
0172 19
0173 15
0174 16
0175 20
0176 3
0177 12
0178 14
0179 7
0180 21
0181 6
